language ESSENCE' 1.0

letting nnodes be 60
letting nrings be 45
letting capacity be 33
letting demand_ExplicitR3_Explicit be
        [[1, 3; int(1..2)], [1, 5; int(1..2)], [1, 8; int(1..2)], [1, 9; int(1..2)], [1, 13; int(1..2)],
         [1, 15; int(1..2)], [1, 17; int(1..2)], [1, 18; int(1..2)], [1, 19; int(1..2)], [1, 25; int(1..2)],
         [1, 27; int(1..2)], [1, 29; int(1..2)], [1, 30; int(1..2)], [1, 31; int(1..2)], [1, 32; int(1..2)],
         [1, 35; int(1..2)], [1, 36; int(1..2)], [1, 37; int(1..2)], [1, 38; int(1..2)], [1, 39; int(1..2)],
         [1, 42; int(1..2)], [1, 43; int(1..2)], [1, 46; int(1..2)], [1, 47; int(1..2)], [1, 48; int(1..2)],
         [1, 49; int(1..2)], [1, 52; int(1..2)], [1, 53; int(1..2)], [1, 54; int(1..2)], [1, 56; int(1..2)],
         [1, 58; int(1..2)], [1, 59; int(1..2)], [2, 3; int(1..2)], [2, 4; int(1..2)], [2, 5; int(1..2)],
         [2, 6; int(1..2)], [2, 8; int(1..2)], [2, 10; int(1..2)], [2, 12; int(1..2)], [2, 13; int(1..2)],
         [2, 14; int(1..2)], [2, 16; int(1..2)], [2, 17; int(1..2)], [2, 18; int(1..2)], [2, 24; int(1..2)],
         [2, 27; int(1..2)], [2, 29; int(1..2)], [2, 31; int(1..2)], [2, 36; int(1..2)], [2, 39; int(1..2)],
         [2, 41; int(1..2)], [2, 44; int(1..2)], [2, 47; int(1..2)], [2, 49; int(1..2)], [2, 51; int(1..2)],
         [2, 57; int(1..2)], [2, 58; int(1..2)], [2, 60; int(1..2)], [3, 5; int(1..2)], [3, 6; int(1..2)],
         [3, 8; int(1..2)], [3, 10; int(1..2)], [3, 20; int(1..2)], [3, 21; int(1..2)], [3, 23; int(1..2)],
         [3, 24; int(1..2)], [3, 26; int(1..2)], [3, 29; int(1..2)], [3, 37; int(1..2)], [3, 39; int(1..2)],
         [3, 42; int(1..2)], [3, 43; int(1..2)], [3, 44; int(1..2)], [3, 46; int(1..2)], [3, 51; int(1..2)],
         [3, 52; int(1..2)], [3, 56; int(1..2)], [3, 59; int(1..2)], [3, 60; int(1..2)], [4, 7; int(1..2)],
         [4, 11; int(1..2)], [4, 12; int(1..2)], [4, 13; int(1..2)], [4, 14; int(1..2)], [4, 16; int(1..2)],
         [4, 21; int(1..2)], [4, 22; int(1..2)], [4, 25; int(1..2)], [4, 26; int(1..2)], [4, 29; int(1..2)],
         [4, 31; int(1..2)], [4, 32; int(1..2)], [4, 34; int(1..2)], [4, 40; int(1..2)], [4, 43; int(1..2)],
         [4, 45; int(1..2)], [4, 47; int(1..2)], [4, 50; int(1..2)], [4, 60; int(1..2)], [5, 8; int(1..2)],
         [5, 11; int(1..2)], [5, 13; int(1..2)], [5, 14; int(1..2)], [5, 16; int(1..2)], [5, 17; int(1..2)],
         [5, 19; int(1..2)], [5, 20; int(1..2)], [5, 22; int(1..2)], [5, 24; int(1..2)], [5, 27; int(1..2)],
         [5, 31; int(1..2)], [5, 32; int(1..2)], [5, 36; int(1..2)], [5, 37; int(1..2)], [5, 45; int(1..2)],
         [5, 46; int(1..2)], [5, 47; int(1..2)], [5, 49; int(1..2)], [5, 50; int(1..2)], [5, 51; int(1..2)],
         [5, 52; int(1..2)], [5, 55; int(1..2)], [5, 56; int(1..2)], [5, 57; int(1..2)], [5, 58; int(1..2)],
         [5, 60; int(1..2)], [6, 7; int(1..2)], [6, 15; int(1..2)], [6, 16; int(1..2)], [6, 19; int(1..2)],
         [6, 20; int(1..2)], [6, 23; int(1..2)], [6, 25; int(1..2)], [6, 26; int(1..2)], [6, 27; int(1..2)],
         [6, 28; int(1..2)], [6, 30; int(1..2)], [6, 31; int(1..2)], [6, 33; int(1..2)], [6, 34; int(1..2)],
         [6, 37; int(1..2)], [6, 38; int(1..2)], [6, 39; int(1..2)], [6, 42; int(1..2)], [6, 43; int(1..2)],
         [6, 44; int(1..2)], [6, 46; int(1..2)], [6, 49; int(1..2)], [6, 50; int(1..2)], [6, 52; int(1..2)],
         [6, 54; int(1..2)], [6, 56; int(1..2)], [6, 58; int(1..2)], [7, 8; int(1..2)], [7, 9; int(1..2)],
         [7, 10; int(1..2)], [7, 11; int(1..2)], [7, 13; int(1..2)], [7, 14; int(1..2)], [7, 18; int(1..2)],
         [7, 20; int(1..2)], [7, 24; int(1..2)], [7, 25; int(1..2)], [7, 27; int(1..2)], [7, 30; int(1..2)],
         [7, 31; int(1..2)], [7, 33; int(1..2)], [7, 34; int(1..2)], [7, 35; int(1..2)], [7, 37; int(1..2)],
         [7, 39; int(1..2)], [7, 40; int(1..2)], [7, 41; int(1..2)], [7, 44; int(1..2)], [7, 47; int(1..2)],
         [7, 48; int(1..2)], [7, 49; int(1..2)], [7, 50; int(1..2)], [7, 51; int(1..2)], [7, 52; int(1..2)],
         [7, 54; int(1..2)], [7, 58; int(1..2)], [8, 9; int(1..2)], [8, 11; int(1..2)], [8, 15; int(1..2)],
         [8, 16; int(1..2)], [8, 17; int(1..2)], [8, 19; int(1..2)], [8, 21; int(1..2)], [8, 25; int(1..2)],
         [8, 29; int(1..2)], [8, 30; int(1..2)], [8, 31; int(1..2)], [8, 32; int(1..2)], [8, 33; int(1..2)],
         [8, 34; int(1..2)], [8, 35; int(1..2)], [8, 37; int(1..2)], [8, 38; int(1..2)], [8, 39; int(1..2)],
         [8, 43; int(1..2)], [8, 45; int(1..2)], [8, 47; int(1..2)], [8, 48; int(1..2)], [8, 49; int(1..2)],
         [8, 50; int(1..2)], [8, 51; int(1..2)], [8, 52; int(1..2)], [8, 55; int(1..2)], [8, 57; int(1..2)],
         [8, 59; int(1..2)], [9, 13; int(1..2)], [9, 18; int(1..2)], [9, 19; int(1..2)], [9, 20; int(1..2)],
         [9, 24; int(1..2)], [9, 27; int(1..2)], [9, 29; int(1..2)], [9, 30; int(1..2)], [9, 32; int(1..2)],
         [9, 34; int(1..2)], [9, 35; int(1..2)], [9, 41; int(1..2)], [9, 42; int(1..2)], [9, 43; int(1..2)],
         [9, 45; int(1..2)], [9, 47; int(1..2)], [9, 48; int(1..2)], [9, 52; int(1..2)], [9, 53; int(1..2)],
         [9, 54; int(1..2)], [9, 60; int(1..2)], [10, 11; int(1..2)], [10, 14; int(1..2)], [10, 16; int(1..2)],
         [10, 17; int(1..2)], [10, 21; int(1..2)], [10, 22; int(1..2)], [10, 26; int(1..2)], [10, 29; int(1..2)],
         [10, 33; int(1..2)], [10, 34; int(1..2)], [10, 40; int(1..2)], [10, 43; int(1..2)], [10, 45; int(1..2)],
         [10, 47; int(1..2)], [10, 49; int(1..2)], [10, 50; int(1..2)], [10, 52; int(1..2)], [10, 54; int(1..2)],
         [10, 56; int(1..2)], [10, 57; int(1..2)], [10, 58; int(1..2)], [10, 59; int(1..2)], [10, 60; int(1..2)],
         [11, 13; int(1..2)], [11, 14; int(1..2)], [11, 17; int(1..2)], [11, 18; int(1..2)], [11, 19; int(1..2)],
         [11, 20; int(1..2)], [11, 21; int(1..2)], [11, 24; int(1..2)], [11, 26; int(1..2)], [11, 29; int(1..2)],
         [11, 32; int(1..2)], [11, 35; int(1..2)], [11, 36; int(1..2)], [11, 39; int(1..2)], [11, 40; int(1..2)],
         [11, 41; int(1..2)], [11, 43; int(1..2)], [11, 44; int(1..2)], [11, 48; int(1..2)], [11, 52; int(1..2)],
         [11, 53; int(1..2)], [11, 54; int(1..2)], [11, 56; int(1..2)], [11, 59; int(1..2)], [11, 60; int(1..2)],
         [12, 14; int(1..2)], [12, 15; int(1..2)], [12, 21; int(1..2)], [12, 25; int(1..2)], [12, 27; int(1..2)],
         [12, 29; int(1..2)], [12, 31; int(1..2)], [12, 32; int(1..2)], [12, 33; int(1..2)], [12, 35; int(1..2)],
         [12, 37; int(1..2)], [12, 38; int(1..2)], [12, 40; int(1..2)], [12, 41; int(1..2)], [12, 45; int(1..2)],
         [12, 47; int(1..2)], [12, 48; int(1..2)], [12, 49; int(1..2)], [12, 52; int(1..2)], [12, 53; int(1..2)],
         [12, 55; int(1..2)], [12, 56; int(1..2)], [12, 59; int(1..2)], [12, 60; int(1..2)], [13, 16; int(1..2)],
         [13, 18; int(1..2)], [13, 19; int(1..2)], [13, 20; int(1..2)], [13, 21; int(1..2)], [13, 22; int(1..2)],
         [13, 23; int(1..2)], [13, 24; int(1..2)], [13, 25; int(1..2)], [13, 26; int(1..2)], [13, 28; int(1..2)],
         [13, 29; int(1..2)], [13, 31; int(1..2)], [13, 32; int(1..2)], [13, 33; int(1..2)], [13, 34; int(1..2)],
         [13, 35; int(1..2)], [13, 36; int(1..2)], [13, 40; int(1..2)], [13, 44; int(1..2)], [13, 45; int(1..2)],
         [13, 46; int(1..2)], [13, 47; int(1..2)], [13, 52; int(1..2)], [13, 55; int(1..2)], [13, 56; int(1..2)],
         [13, 57; int(1..2)], [13, 58; int(1..2)], [13, 59; int(1..2)], [14, 15; int(1..2)], [14, 16; int(1..2)],
         [14, 17; int(1..2)], [14, 20; int(1..2)], [14, 21; int(1..2)], [14, 24; int(1..2)], [14, 25; int(1..2)],
         [14, 26; int(1..2)], [14, 30; int(1..2)], [14, 34; int(1..2)], [14, 35; int(1..2)], [14, 36; int(1..2)],
         [14, 37; int(1..2)], [14, 38; int(1..2)], [14, 44; int(1..2)], [14, 46; int(1..2)], [14, 48; int(1..2)],
         [14, 49; int(1..2)], [14, 50; int(1..2)], [14, 52; int(1..2)], [14, 53; int(1..2)], [14, 56; int(1..2)],
         [14, 59; int(1..2)], [14, 60; int(1..2)], [15, 16; int(1..2)], [15, 17; int(1..2)], [15, 18; int(1..2)],
         [15, 21; int(1..2)], [15, 22; int(1..2)], [15, 23; int(1..2)], [15, 24; int(1..2)], [15, 25; int(1..2)],
         [15, 28; int(1..2)], [15, 29; int(1..2)], [15, 31; int(1..2)], [15, 32; int(1..2)], [15, 33; int(1..2)],
         [15, 36; int(1..2)], [15, 37; int(1..2)], [15, 39; int(1..2)], [15, 40; int(1..2)], [15, 42; int(1..2)],
         [15, 44; int(1..2)], [15, 45; int(1..2)], [15, 49; int(1..2)], [15, 50; int(1..2)], [15, 53; int(1..2)],
         [15, 55; int(1..2)], [15, 59; int(1..2)], [16, 17; int(1..2)], [16, 18; int(1..2)], [16, 19; int(1..2)],
         [16, 20; int(1..2)], [16, 21; int(1..2)], [16, 22; int(1..2)], [16, 23; int(1..2)], [16, 29; int(1..2)],
         [16, 30; int(1..2)], [16, 31; int(1..2)], [16, 33; int(1..2)], [16, 35; int(1..2)], [16, 37; int(1..2)],
         [16, 41; int(1..2)], [16, 44; int(1..2)], [16, 45; int(1..2)], [16, 46; int(1..2)], [16, 49; int(1..2)],
         [16, 50; int(1..2)], [16, 51; int(1..2)], [16, 54; int(1..2)], [16, 55; int(1..2)], [16, 58; int(1..2)],
         [16, 60; int(1..2)], [17, 18; int(1..2)], [17, 20; int(1..2)], [17, 23; int(1..2)], [17, 24; int(1..2)],
         [17, 26; int(1..2)], [17, 27; int(1..2)], [17, 28; int(1..2)], [17, 29; int(1..2)], [17, 30; int(1..2)],
         [17, 32; int(1..2)], [17, 33; int(1..2)], [17, 35; int(1..2)], [17, 36; int(1..2)], [17, 37; int(1..2)],
         [17, 38; int(1..2)], [17, 40; int(1..2)], [17, 41; int(1..2)], [17, 43; int(1..2)], [17, 44; int(1..2)],
         [17, 45; int(1..2)], [17, 46; int(1..2)], [17, 49; int(1..2)], [17, 51; int(1..2)], [17, 52; int(1..2)],
         [17, 53; int(1..2)], [17, 57; int(1..2)], [17, 58; int(1..2)], [17, 60; int(1..2)], [18, 20; int(1..2)],
         [18, 22; int(1..2)], [18, 24; int(1..2)], [18, 25; int(1..2)], [18, 28; int(1..2)], [18, 33; int(1..2)],
         [18, 36; int(1..2)], [18, 40; int(1..2)], [18, 44; int(1..2)], [18, 48; int(1..2)], [18, 50; int(1..2)],
         [18, 51; int(1..2)], [18, 53; int(1..2)], [18, 54; int(1..2)], [18, 56; int(1..2)], [18, 57; int(1..2)],
         [19, 25; int(1..2)], [19, 26; int(1..2)], [19, 27; int(1..2)], [19, 28; int(1..2)], [19, 30; int(1..2)],
         [19, 33; int(1..2)], [19, 34; int(1..2)], [19, 35; int(1..2)], [19, 40; int(1..2)], [19, 41; int(1..2)],
         [19, 42; int(1..2)], [19, 44; int(1..2)], [19, 45; int(1..2)], [19, 47; int(1..2)], [19, 49; int(1..2)],
         [19, 50; int(1..2)], [19, 54; int(1..2)], [19, 56; int(1..2)], [19, 57; int(1..2)], [19, 58; int(1..2)],
         [19, 60; int(1..2)], [20, 23; int(1..2)], [20, 24; int(1..2)], [20, 27; int(1..2)], [20, 30; int(1..2)],
         [20, 31; int(1..2)], [20, 32; int(1..2)], [20, 33; int(1..2)], [20, 39; int(1..2)], [20, 40; int(1..2)],
         [20, 43; int(1..2)], [20, 44; int(1..2)], [20, 45; int(1..2)], [20, 46; int(1..2)], [20, 49; int(1..2)],
         [20, 51; int(1..2)], [20, 52; int(1..2)], [20, 55; int(1..2)], [20, 58; int(1..2)], [20, 59; int(1..2)],
         [20, 60; int(1..2)], [21, 24; int(1..2)], [21, 29; int(1..2)], [21, 31; int(1..2)], [21, 32; int(1..2)],
         [21, 33; int(1..2)], [21, 36; int(1..2)], [21, 37; int(1..2)], [21, 38; int(1..2)], [21, 39; int(1..2)],
         [21, 40; int(1..2)], [21, 45; int(1..2)], [21, 46; int(1..2)], [21, 48; int(1..2)], [21, 53; int(1..2)],
         [21, 54; int(1..2)], [21, 58; int(1..2)], [21, 60; int(1..2)], [22, 23; int(1..2)], [22, 24; int(1..2)],
         [22, 25; int(1..2)], [22, 26; int(1..2)], [22, 28; int(1..2)], [22, 29; int(1..2)], [22, 32; int(1..2)],
         [22, 33; int(1..2)], [22, 37; int(1..2)], [22, 40; int(1..2)], [22, 42; int(1..2)], [22, 43; int(1..2)],
         [22, 44; int(1..2)], [22, 46; int(1..2)], [22, 52; int(1..2)], [22, 53; int(1..2)], [22, 59; int(1..2)],
         [23, 25; int(1..2)], [23, 26; int(1..2)], [23, 28; int(1..2)], [23, 32; int(1..2)], [23, 34; int(1..2)],
         [23, 36; int(1..2)], [23, 37; int(1..2)], [23, 38; int(1..2)], [23, 41; int(1..2)], [23, 43; int(1..2)],
         [23, 44; int(1..2)], [23, 45; int(1..2)], [23, 46; int(1..2)], [23, 49; int(1..2)], [23, 53; int(1..2)],
         [23, 56; int(1..2)], [23, 57; int(1..2)], [23, 59; int(1..2)], [23, 60; int(1..2)], [24, 26; int(1..2)],
         [24, 30; int(1..2)], [24, 31; int(1..2)], [24, 34; int(1..2)], [24, 37; int(1..2)], [24, 38; int(1..2)],
         [24, 39; int(1..2)], [24, 40; int(1..2)], [24, 47; int(1..2)], [24, 48; int(1..2)], [24, 49; int(1..2)],
         [24, 52; int(1..2)], [24, 53; int(1..2)], [24, 54; int(1..2)], [24, 57; int(1..2)], [24, 59; int(1..2)],
         [25, 26; int(1..2)], [25, 30; int(1..2)], [25, 31; int(1..2)], [25, 33; int(1..2)], [25, 34; int(1..2)],
         [25, 35; int(1..2)], [25, 36; int(1..2)], [25, 37; int(1..2)], [25, 39; int(1..2)], [25, 40; int(1..2)],
         [25, 41; int(1..2)], [25, 44; int(1..2)], [25, 47; int(1..2)], [25, 48; int(1..2)], [25, 50; int(1..2)],
         [25, 52; int(1..2)], [25, 53; int(1..2)], [25, 54; int(1..2)], [25, 58; int(1..2)], [25, 60; int(1..2)],
         [26, 27; int(1..2)], [26, 29; int(1..2)], [26, 31; int(1..2)], [26, 33; int(1..2)], [26, 35; int(1..2)],
         [26, 36; int(1..2)], [26, 40; int(1..2)], [26, 44; int(1..2)], [26, 46; int(1..2)], [26, 49; int(1..2)],
         [26, 50; int(1..2)], [26, 51; int(1..2)], [26, 52; int(1..2)], [26, 53; int(1..2)], [26, 57; int(1..2)],
         [26, 58; int(1..2)], [27, 28; int(1..2)], [27, 30; int(1..2)], [27, 32; int(1..2)], [27, 37; int(1..2)],
         [27, 40; int(1..2)], [27, 45; int(1..2)], [27, 46; int(1..2)], [27, 47; int(1..2)], [27, 48; int(1..2)],
         [27, 52; int(1..2)], [27, 53; int(1..2)], [27, 54; int(1..2)], [27, 57; int(1..2)], [27, 58; int(1..2)],
         [27, 60; int(1..2)], [28, 29; int(1..2)], [28, 31; int(1..2)], [28, 32; int(1..2)], [28, 33; int(1..2)],
         [28, 34; int(1..2)], [28, 35; int(1..2)], [28, 40; int(1..2)], [28, 41; int(1..2)], [28, 42; int(1..2)],
         [28, 45; int(1..2)], [28, 46; int(1..2)], [28, 47; int(1..2)], [28, 48; int(1..2)], [28, 49; int(1..2)],
         [28, 50; int(1..2)], [28, 51; int(1..2)], [28, 53; int(1..2)], [28, 55; int(1..2)], [28, 59; int(1..2)],
         [28, 60; int(1..2)], [29, 30; int(1..2)], [29, 31; int(1..2)], [29, 32; int(1..2)], [29, 34; int(1..2)],
         [29, 38; int(1..2)], [29, 39; int(1..2)], [29, 40; int(1..2)], [29, 44; int(1..2)], [29, 46; int(1..2)],
         [29, 47; int(1..2)], [29, 48; int(1..2)], [29, 52; int(1..2)], [29, 53; int(1..2)], [29, 54; int(1..2)],
         [29, 55; int(1..2)], [29, 58; int(1..2)], [29, 59; int(1..2)], [29, 60; int(1..2)], [30, 31; int(1..2)],
         [30, 32; int(1..2)], [30, 36; int(1..2)], [30, 40; int(1..2)], [30, 41; int(1..2)], [30, 42; int(1..2)],
         [30, 43; int(1..2)], [30, 44; int(1..2)], [30, 49; int(1..2)], [30, 50; int(1..2)], [30, 53; int(1..2)],
         [30, 57; int(1..2)], [30, 58; int(1..2)], [31, 33; int(1..2)], [31, 34; int(1..2)], [31, 36; int(1..2)],
         [31, 40; int(1..2)], [31, 41; int(1..2)], [31, 42; int(1..2)], [31, 43; int(1..2)], [31, 45; int(1..2)],
         [31, 50; int(1..2)], [31, 51; int(1..2)], [31, 53; int(1..2)], [31, 56; int(1..2)], [31, 57; int(1..2)],
         [31, 58; int(1..2)], [31, 60; int(1..2)], [32, 35; int(1..2)], [32, 36; int(1..2)], [32, 37; int(1..2)],
         [32, 38; int(1..2)], [32, 39; int(1..2)], [32, 41; int(1..2)], [32, 43; int(1..2)], [32, 47; int(1..2)],
         [32, 48; int(1..2)], [32, 49; int(1..2)], [32, 51; int(1..2)], [32, 53; int(1..2)], [32, 54; int(1..2)],
         [32, 57; int(1..2)], [33, 34; int(1..2)], [33, 35; int(1..2)], [33, 38; int(1..2)], [33, 42; int(1..2)],
         [33, 43; int(1..2)], [33, 46; int(1..2)], [33, 49; int(1..2)], [33, 50; int(1..2)], [33, 53; int(1..2)],
         [33, 54; int(1..2)], [33, 55; int(1..2)], [33, 58; int(1..2)], [33, 60; int(1..2)], [34, 35; int(1..2)],
         [34, 36; int(1..2)], [34, 39; int(1..2)], [34, 41; int(1..2)], [34, 42; int(1..2)], [34, 45; int(1..2)],
         [34, 51; int(1..2)], [34, 54; int(1..2)], [34, 55; int(1..2)], [34, 57; int(1..2)], [34, 58; int(1..2)],
         [34, 59; int(1..2)], [35, 40; int(1..2)], [35, 42; int(1..2)], [35, 43; int(1..2)], [35, 44; int(1..2)],
         [35, 46; int(1..2)], [35, 49; int(1..2)], [35, 52; int(1..2)], [35, 53; int(1..2)], [35, 54; int(1..2)],
         [35, 56; int(1..2)], [35, 57; int(1..2)], [35, 58; int(1..2)], [36, 38; int(1..2)], [36, 40; int(1..2)],
         [36, 41; int(1..2)], [36, 42; int(1..2)], [36, 43; int(1..2)], [36, 45; int(1..2)], [36, 46; int(1..2)],
         [36, 47; int(1..2)], [36, 48; int(1..2)], [36, 50; int(1..2)], [36, 51; int(1..2)], [36, 53; int(1..2)],
         [36, 56; int(1..2)], [37, 39; int(1..2)], [37, 40; int(1..2)], [37, 41; int(1..2)], [37, 43; int(1..2)],
         [37, 48; int(1..2)], [37, 50; int(1..2)], [37, 52; int(1..2)], [37, 56; int(1..2)], [37, 57; int(1..2)],
         [37, 60; int(1..2)], [38, 39; int(1..2)], [38, 44; int(1..2)], [38, 48; int(1..2)], [38, 49; int(1..2)],
         [38, 50; int(1..2)], [38, 51; int(1..2)], [38, 55; int(1..2)], [38, 56; int(1..2)], [38, 59; int(1..2)],
         [39, 41; int(1..2)], [39, 44; int(1..2)], [39, 45; int(1..2)], [39, 46; int(1..2)], [39, 47; int(1..2)],
         [39, 48; int(1..2)], [39, 49; int(1..2)], [39, 50; int(1..2)], [39, 51; int(1..2)], [39, 52; int(1..2)],
         [39, 54; int(1..2)], [39, 55; int(1..2)], [39, 56; int(1..2)], [39, 57; int(1..2)], [40, 41; int(1..2)],
         [40, 43; int(1..2)], [40, 44; int(1..2)], [40, 46; int(1..2)], [40, 47; int(1..2)], [40, 48; int(1..2)],
         [40, 49; int(1..2)], [40, 51; int(1..2)], [40, 52; int(1..2)], [40, 53; int(1..2)], [40, 60; int(1..2)],
         [41, 42; int(1..2)], [41, 43; int(1..2)], [41, 45; int(1..2)], [41, 49; int(1..2)], [41, 56; int(1..2)],
         [41, 58; int(1..2)], [42, 43; int(1..2)], [42, 46; int(1..2)], [42, 51; int(1..2)], [42, 57; int(1..2)],
         [42, 58; int(1..2)], [43, 49; int(1..2)], [43, 53; int(1..2)], [43, 54; int(1..2)], [43, 55; int(1..2)],
         [43, 56; int(1..2)], [43, 58; int(1..2)], [43, 59; int(1..2)], [44, 45; int(1..2)], [44, 47; int(1..2)],
         [44, 48; int(1..2)], [44, 49; int(1..2)], [44, 52; int(1..2)], [44, 56; int(1..2)], [44, 57; int(1..2)],
         [44, 58; int(1..2)], [44, 59; int(1..2)], [45, 46; int(1..2)], [45, 48; int(1..2)], [45, 49; int(1..2)],
         [45, 52; int(1..2)], [45, 53; int(1..2)], [45, 56; int(1..2)], [45, 57; int(1..2)], [45, 59; int(1..2)],
         [45, 60; int(1..2)], [46, 52; int(1..2)], [46, 53; int(1..2)], [46, 54; int(1..2)], [46, 58; int(1..2)],
         [46, 59; int(1..2)], [46, 60; int(1..2)], [47, 48; int(1..2)], [47, 51; int(1..2)], [47, 54; int(1..2)],
         [47, 60; int(1..2)], [48, 52; int(1..2)], [48, 55; int(1..2)], [48, 56; int(1..2)], [48, 57; int(1..2)],
         [48, 58; int(1..2)], [48, 60; int(1..2)], [49, 50; int(1..2)], [49, 51; int(1..2)], [49, 52; int(1..2)],
         [49, 53; int(1..2)], [49, 55; int(1..2)], [49, 58; int(1..2)], [50, 52; int(1..2)], [50, 53; int(1..2)],
         [50, 54; int(1..2)], [50, 57; int(1..2)], [50, 59; int(1..2)], [51, 52; int(1..2)], [51, 54; int(1..2)],
         [51, 55; int(1..2)], [51, 57; int(1..2)], [51, 58; int(1..2)], [52, 54; int(1..2)], [52, 55; int(1..2)],
         [52, 56; int(1..2)], [52, 57; int(1..2)], [52, 58; int(1..2)], [52, 59; int(1..2)], [53, 54; int(1..2)],
         [54, 57; int(1..2)], [54, 59; int(1..2)], [55, 56; int(1..2)], [55, 57; int(1..2)], [55, 58; int(1..2)],
         [55, 60; int(1..2)], [59, 60; int(1..2)];
             int(1..867)]
$ Visualisation for demand_ExplicitR3_Explicit
$  1  3
$  1  5
$  1  8
$  1  9
$  1 13
$  1 15
$  1 17
$  1 18
$  1 19
$  1 25
$  1 27
$  1 29
$  1 30
$  1 31
$  1 32
$  1 35
$  1 36
$  1 37
$  1 38
$  1 39
$  1 42
$  1 43
$  1 46
$  1 47
$  1 48
$  1 49
$  1 52
$  1 53
$  1 54
$  1 56
$  1 58
$  1 59
$  2  3
$  2  4
$  2  5
$  2  6
$  2  8
$  2 10
$  2 12
$  2 13
$  2 14
$  2 16
$  2 17
$  2 18
$  2 24
$  2 27
$  2 29
$  2 31
$  2 36
$  2 39
$  2 41
$  2 44
$  2 47
$  2 49
$  2 51
$  2 57
$  2 58
$  2 60
$  3  5
$  3  6
$  3  8
$  3 10
$  3 20
$  3 21
$  3 23
$  3 24
$  3 26
$  3 29
$  3 37
$  3 39
$  3 42
$  3 43
$  3 44
$  3 46
$  3 51
$  3 52
$  3 56
$  3 59
$  3 60
$  4  7
$  4 11
$  4 12
$  4 13
$  4 14
$  4 16
$  4 21
$  4 22
$  4 25
$  4 26
$  4 29
$  4 31
$  4 32
$  4 34
$  4 40
$  4 43
$  4 45
$  4 47
$  4 50
$  4 60
$  5  8
$  5 11
$  5 13
$  5 14
$  5 16
$  5 17
$  5 19
$  5 20
$  5 22
$  5 24
$  5 27
$  5 31
$  5 32
$  5 36
$  5 37
$  5 45
$  5 46
$  5 47
$  5 49
$  5 50
$  5 51
$  5 52
$  5 55
$  5 56
$  5 57
$  5 58
$  5 60
$  6  7
$  6 15
$  6 16
$  6 19
$  6 20
$  6 23
$  6 25
$  6 26
$  6 27
$  6 28
$  6 30
$  6 31
$  6 33
$  6 34
$  6 37
$  6 38
$  6 39
$  6 42
$  6 43
$  6 44
$  6 46
$  6 49
$  6 50
$  6 52
$  6 54
$  6 56
$  6 58
$  7  8
$  7  9
$  7 10
$  7 11
$  7 13
$  7 14
$  7 18
$  7 20
$  7 24
$  7 25
$  7 27
$  7 30
$  7 31
$  7 33
$  7 34
$  7 35
$  7 37
$  7 39
$  7 40
$  7 41
$  7 44
$  7 47
$  7 48
$  7 49
$  7 50
$  7 51
$  7 52
$  7 54
$  7 58
$  8  9
$  8 11
$  8 15
$  8 16
$  8 17
$  8 19
$  8 21
$  8 25
$  8 29
$  8 30
$  8 31
$  8 32
$  8 33
$  8 34
$  8 35
$  8 37
$  8 38
$  8 39
$  8 43
$  8 45
$  8 47
$  8 48
$  8 49
$  8 50
$  8 51
$  8 52
$  8 55
$  8 57
$  8 59
$  9 13
$  9 18
$  9 19
$  9 20
$  9 24
$  9 27
$  9 29
$  9 30
$  9 32
$  9 34
$  9 35
$  9 41
$  9 42
$  9 43
$  9 45
$  9 47
$  9 48
$  9 52
$  9 53
$  9 54
$  9 60
$ 10 11
$ 10 14
$ 10 16
$ 10 17
$ 10 21
$ 10 22
$ 10 26
$ 10 29
$ 10 33
$ 10 34
$ 10 40
$ 10 43
$ 10 45
$ 10 47
$ 10 49
$ 10 50
$ 10 52
$ 10 54
$ 10 56
$ 10 57
$ 10 58
$ 10 59
$ 10 60
$ 11 13
$ 11 14
$ 11 17
$ 11 18
$ 11 19
$ 11 20
$ 11 21
$ 11 24
$ 11 26
$ 11 29
$ 11 32
$ 11 35
$ 11 36
$ 11 39
$ 11 40
$ 11 41
$ 11 43
$ 11 44
$ 11 48
$ 11 52
$ 11 53
$ 11 54
$ 11 56
$ 11 59
$ 11 60
$ 12 14
$ 12 15
$ 12 21
$ 12 25
$ 12 27
$ 12 29
$ 12 31
$ 12 32
$ 12 33
$ 12 35
$ 12 37
$ 12 38
$ 12 40
$ 12 41
$ 12 45
$ 12 47
$ 12 48
$ 12 49
$ 12 52
$ 12 53
$ 12 55
$ 12 56
$ 12 59
$ 12 60
$ 13 16
$ 13 18
$ 13 19
$ 13 20
$ 13 21
$ 13 22
$ 13 23
$ 13 24
$ 13 25
$ 13 26
$ 13 28
$ 13 29
$ 13 31
$ 13 32
$ 13 33
$ 13 34
$ 13 35
$ 13 36
$ 13 40
$ 13 44
$ 13 45
$ 13 46
$ 13 47
$ 13 52
$ 13 55
$ 13 56
$ 13 57
$ 13 58
$ 13 59
$ 14 15
$ 14 16
$ 14 17
$ 14 20
$ 14 21
$ 14 24
$ 14 25
$ 14 26
$ 14 30
$ 14 34
$ 14 35
$ 14 36
$ 14 37
$ 14 38
$ 14 44
$ 14 46
$ 14 48
$ 14 49
$ 14 50
$ 14 52
$ 14 53
$ 14 56
$ 14 59
$ 14 60
$ 15 16
$ 15 17
$ 15 18
$ 15 21
$ 15 22
$ 15 23
$ 15 24
$ 15 25
$ 15 28
$ 15 29
$ 15 31
$ 15 32
$ 15 33
$ 15 36
$ 15 37
$ 15 39
$ 15 40
$ 15 42
$ 15 44
$ 15 45
$ 15 49
$ 15 50
$ 15 53
$ 15 55
$ 15 59
$ 16 17
$ 16 18
$ 16 19
$ 16 20
$ 16 21
$ 16 22
$ 16 23
$ 16 29
$ 16 30
$ 16 31
$ 16 33
$ 16 35
$ 16 37
$ 16 41
$ 16 44
$ 16 45
$ 16 46
$ 16 49
$ 16 50
$ 16 51
$ 16 54
$ 16 55
$ 16 58
$ 16 60
$ 17 18
$ 17 20
$ 17 23
$ 17 24
$ 17 26
$ 17 27
$ 17 28
$ 17 29
$ 17 30
$ 17 32
$ 17 33
$ 17 35
$ 17 36
$ 17 37
$ 17 38
$ 17 40
$ 17 41
$ 17 43
$ 17 44
$ 17 45
$ 17 46
$ 17 49
$ 17 51
$ 17 52
$ 17 53
$ 17 57
$ 17 58
$ 17 60
$ 18 20
$ 18 22
$ 18 24
$ 18 25
$ 18 28
$ 18 33
$ 18 36
$ 18 40
$ 18 44
$ 18 48
$ 18 50
$ 18 51
$ 18 53
$ 18 54
$ 18 56
$ 18 57
$ 19 25
$ 19 26
$ 19 27
$ 19 28
$ 19 30
$ 19 33
$ 19 34
$ 19 35
$ 19 40
$ 19 41
$ 19 42
$ 19 44
$ 19 45
$ 19 47
$ 19 49
$ 19 50
$ 19 54
$ 19 56
$ 19 57
$ 19 58
$ 19 60
$ 20 23
$ 20 24
$ 20 27
$ 20 30
$ 20 31
$ 20 32
$ 20 33
$ 20 39
$ 20 40
$ 20 43
$ 20 44
$ 20 45
$ 20 46
$ 20 49
$ 20 51
$ 20 52
$ 20 55
$ 20 58
$ 20 59
$ 20 60
$ 21 24
$ 21 29
$ 21 31
$ 21 32
$ 21 33
$ 21 36
$ 21 37
$ 21 38
$ 21 39
$ 21 40
$ 21 45
$ 21 46
$ 21 48
$ 21 53
$ 21 54
$ 21 58
$ 21 60
$ 22 23
$ 22 24
$ 22 25
$ 22 26
$ 22 28
$ 22 29
$ 22 32
$ 22 33
$ 22 37
$ 22 40
$ 22 42
$ 22 43
$ 22 44
$ 22 46
$ 22 52
$ 22 53
$ 22 59
$ 23 25
$ 23 26
$ 23 28
$ 23 32
$ 23 34
$ 23 36
$ 23 37
$ 23 38
$ 23 41
$ 23 43
$ 23 44
$ 23 45
$ 23 46
$ 23 49
$ 23 53
$ 23 56
$ 23 57
$ 23 59
$ 23 60
$ 24 26
$ 24 30
$ 24 31
$ 24 34
$ 24 37
$ 24 38
$ 24 39
$ 24 40
$ 24 47
$ 24 48
$ 24 49
$ 24 52
$ 24 53
$ 24 54
$ 24 57
$ 24 59
$ 25 26
$ 25 30
$ 25 31
$ 25 33
$ 25 34
$ 25 35
$ 25 36
$ 25 37
$ 25 39
$ 25 40
$ 25 41
$ 25 44
$ 25 47
$ 25 48
$ 25 50
$ 25 52
$ 25 53
$ 25 54
$ 25 58
$ 25 60
$ 26 27
$ 26 29
$ 26 31
$ 26 33
$ 26 35
$ 26 36
$ 26 40
$ 26 44
$ 26 46
$ 26 49
$ 26 50
$ 26 51
$ 26 52
$ 26 53
$ 26 57
$ 26 58
$ 27 28
$ 27 30
$ 27 32
$ 27 37
$ 27 40
$ 27 45
$ 27 46
$ 27 47
$ 27 48
$ 27 52
$ 27 53
$ 27 54
$ 27 57
$ 27 58
$ 27 60
$ 28 29
$ 28 31
$ 28 32
$ 28 33
$ 28 34
$ 28 35
$ 28 40
$ 28 41
$ 28 42
$ 28 45
$ 28 46
$ 28 47
$ 28 48
$ 28 49
$ 28 50
$ 28 51
$ 28 53
$ 28 55
$ 28 59
$ 28 60
$ 29 30
$ 29 31
$ 29 32
$ 29 34
$ 29 38
$ 29 39
$ 29 40
$ 29 44
$ 29 46
$ 29 47
$ 29 48
$ 29 52
$ 29 53
$ 29 54
$ 29 55
$ 29 58
$ 29 59
$ 29 60
$ 30 31
$ 30 32
$ 30 36
$ 30 40
$ 30 41
$ 30 42
$ 30 43
$ 30 44
$ 30 49
$ 30 50
$ 30 53
$ 30 57
$ 30 58
$ 31 33
$ 31 34
$ 31 36
$ 31 40
$ 31 41
$ 31 42
$ 31 43
$ 31 45
$ 31 50
$ 31 51
$ 31 53
$ 31 56
$ 31 57
$ 31 58
$ 31 60
$ 32 35
$ 32 36
$ 32 37
$ 32 38
$ 32 39
$ 32 41
$ 32 43
$ 32 47
$ 32 48
$ 32 49
$ 32 51
$ 32 53
$ 32 54
$ 32 57
$ 33 34
$ 33 35
$ 33 38
$ 33 42
$ 33 43
$ 33 46
$ 33 49
$ 33 50
$ 33 53
$ 33 54
$ 33 55
$ 33 58
$ 33 60
$ 34 35
$ 34 36
$ 34 39
$ 34 41
$ 34 42
$ 34 45
$ 34 51
$ 34 54
$ 34 55
$ 34 57
$ 34 58
$ 34 59
$ 35 40
$ 35 42
$ 35 43
$ 35 44
$ 35 46
$ 35 49
$ 35 52
$ 35 53
$ 35 54
$ 35 56
$ 35 57
$ 35 58
$ 36 38
$ 36 40
$ 36 41
$ 36 42
$ 36 43
$ 36 45
$ 36 46
$ 36 47
$ 36 48
$ 36 50
$ 36 51
$ 36 53
$ 36 56
$ 37 39
$ 37 40
$ 37 41
$ 37 43
$ 37 48
$ 37 50
$ 37 52
$ 37 56
$ 37 57
$ 37 60
$ 38 39
$ 38 44
$ 38 48
$ 38 49
$ 38 50
$ 38 51
$ 38 55
$ 38 56
$ 38 59
$ 39 41
$ 39 44
$ 39 45
$ 39 46
$ 39 47
$ 39 48
$ 39 49
$ 39 50
$ 39 51
$ 39 52
$ 39 54
$ 39 55
$ 39 56
$ 39 57
$ 40 41
$ 40 43
$ 40 44
$ 40 46
$ 40 47
$ 40 48
$ 40 49
$ 40 51
$ 40 52
$ 40 53
$ 40 60
$ 41 42
$ 41 43
$ 41 45
$ 41 49
$ 41 56
$ 41 58
$ 42 43
$ 42 46
$ 42 51
$ 42 57
$ 42 58
$ 43 49
$ 43 53
$ 43 54
$ 43 55
$ 43 56
$ 43 58
$ 43 59
$ 44 45
$ 44 47
$ 44 48
$ 44 49
$ 44 52
$ 44 56
$ 44 57
$ 44 58
$ 44 59
$ 45 46
$ 45 48
$ 45 49
$ 45 52
$ 45 53
$ 45 56
$ 45 57
$ 45 59
$ 45 60
$ 46 52
$ 46 53
$ 46 54
$ 46 58
$ 46 59
$ 46 60
$ 47 48
$ 47 51
$ 47 54
$ 47 60
$ 48 52
$ 48 55
$ 48 56
$ 48 57
$ 48 58
$ 48 60
$ 49 50
$ 49 51
$ 49 52
$ 49 53
$ 49 55
$ 49 58
$ 50 52
$ 50 53
$ 50 54
$ 50 57
$ 50 59
$ 51 52
$ 51 54
$ 51 55
$ 51 57
$ 51 58
$ 52 54
$ 52 55
$ 52 56
$ 52 57
$ 52 58
$ 52 59
$ 53 54
$ 54 57
$ 54 59
$ 55 56
$ 55 57
$ 55 58
$ 55 60
$ 59 60

letting fin1 be 867
